************************************************************************
file with basedata            : md348_.bas
initial value random generator: 1990190123
************************************************************************
projects                      :  1
jobs (incl. supersource/sink ):  22
horizon                       :  153
RESOURCES
  - renewable                 :  2   R
  - nonrenewable              :  2   N
  - doubly constrained        :  0   D
************************************************************************
PROJECT INFORMATION:
pronr.  #jobs rel.date duedate tardcost  MPM-Time
    1     20      0       22        2       22
************************************************************************
PRECEDENCE RELATIONS:
jobnr.    #modes  #successors   successors
   1        1          3           2   3   4
   2        3          3           5   6  14
   3        3          3          12  16  20
   4        3          2          15  17
   5        3          3           7  17  18
   6        3          3           8   9  10
   7        3          3          11  13  21
   8        3          3          13  15  18
   9        3          2          13  17
  10        3          2          16  20
  11        3          2          12  20
  12        3          1          15
  13        3          1          16
  14        3          2          18  21
  15        3          1          19
  16        3          1          19
  17        3          1          21
  18        3          1          19
  19        3          1          22
  20        3          1          22
  21        3          1          22
  22        1          0        
************************************************************************
REQUESTS/DURATIONS:
jobnr. mode duration  R 1  R 2  N 1  N 2
------------------------------------------------------------------------
  1      1     0       0    0    0    0
  2      1     4       0   10    7    0
         2     5       7    0    0    2
         3     6       5    0    7    0
  3      1     4       5    0    0    3
         2     5       0    6    5    0
         3    10       2    0    3    0
  4      1     2       0    8    0    2
         2     3       0    6    6    0
         3    10       0    2    5    0
  5      1     9       0    9    6    0
         2     9       3    0    6    0
         3    10       3    0    0   10
  6      1     7       0    3    8    0
         2     9       0    3    5    0
         3     9       0    2    0    4
  7      1     1       0    2    7    0
         2     2       2    0    0   10
         3     5       2    0    0    8
  8      1     4       0    4    0    4
         2     4       0    4    4    0
         3     8       9    0    4    0
  9      1     1       4    0    5    0
         2     3       0    6    0    5
         3     9       0    5    0    5
 10      1     1       4    0    6    0
         2     2       3    0    5    0
         3    10       3    0    3    0
 11      1     4       0    5    0    5
         2     5       8    0    0    4
         3     9       0    5    7    0
 12      1     1      10    0    3    0
         2     1       0    5    0    9
         3     3       8    0    0    9
 13      1     2       0    4    7    0
         2     4       8    0    7    0
         3     5       7    0    7    0
 14      1     4       8    0    0    7
         2     4       6    0    0    8
         3     7       1    0    6    0
 15      1     2       2    0    3    0
         2     5       2    0    0    4
         3    10       1    0    0    4
 16      1     3       0   10    0    3
         2     5       5    0    6    0
         3     5       0    9    0    2
 17      1     1       0    9    0   10
         2     3       0    7    0    9
         3     3       0    7    7    0
 18      1     2       0   10    0    8
         2     3       6    0    2    0
         3     9       5    0    0    8
 19      1     1       0    2    0    7
         2     5      10    0    0    7
         3     8       0    1    2    0
 20      1     3       0   10    0    7
         2     7       0    7    0    4
         3     7       0    6    7    0
 21      1     3       5    0    8    0
         2     6       5    0    7    0
         3    10       4    0    7    0
 22      1     0       0    0    0    0
************************************************************************
RESOURCEAVAILABILITIES:
  R 1  R 2  N 1  N 2
   24   25  112  101
************************************************************************
MAXIMAL LAGS:
from  to  type  delay
    1   12   ES      0
    1    2   ES      0
    2   12   ES      0
    1    3   ES      0
    3   12   ES      0
    1    4   ES      0
    4   12   ES      0
    1    5   ES      0
    5   12   ES      0
    1    6   ES      0
    6   12   ES      0
    1    7   ES      0
    7   12   ES      0
    1    8   ES      0
    8   12   ES      0
    1    9   ES      0
    9   12   ES      0
    1   10   ES      0
   10   12   ES      0
    1   11   ES      0
   11   12   ES      0
    1   12   ES      0
    2    5   SS     -1
    2    5   SE     12
    2    5   ES     -4
    2    5   EE    -11
    2    6   SS    -11
    2    6   SE      9
    2    6   ES      1
    2    6   EE     -4
    2   14   SS     -3
    2   14   SE      8
    2   14   ES     -1
    2   14   EE     -3
    3   16   SS      8
    3   16   SE      2
    3   16   ES     -2
    3   16   EE     11
    3   20   SS     -8
    3   20   SE     -6
    3   20   ES    -10
    3   20   EE     -9
    4   15   SS     -8
    4   15   SE     -6
    4   15   ES     -8
    4   15   EE     10
    4   17   SS      2
    4   17   SE     -3
    4   17   ES     12
    4   17   EE      5
    5    7   SS      7
    5    7   SE     12
    5    7   ES     11
    5    7   EE     11
    5   17   SS      3
    5   17   SE      9
    5   17   ES      7
    5   17   EE     11
    5   18   SS    -10
    5   18   SE      2
    5   18   ES      2
    5   18   EE     12
    6    8   SS      0
    6    8   SE     12
    6    8   ES     -6
    6    8   EE     -5
    6    9   SS      9
    6    9   SE     -3
    6    9   ES      8
    6    9   EE      8
    6   10   SS      9
    6   10   SE     11
    6   10   ES     -7
    6   10   EE      3
    7   11   SS     -7
    7   11   SE    -12
    7   11   ES     -6
    7   11   EE      5
    7   13   SS      5
    7   13   SE      0
    7   13   ES      9
    7   13   EE     -7
    7   21   SS    -10
    7   21   SE      3
    7   21   ES     -1
    7   21   EE     10
    8   13   SS    -12
    8   13   SE      8
    8   13   ES      5
    8   13   EE    -11
    8   15   SS    -10
    8   15   SE      7
   15    8   SE      0
    8   15   ES      0
    8   15   EE     -5
    8   18   SS    -11
    8   18   SE     -4
    8   18   ES     -2
    8   18   EE     10
    9   13   SS      8
    9   13   SE     -6
    9   13   ES    -11
    9   13   EE      0
    9   17   SS      7
    9   17   SE     -5
    9   17   ES     -2
    9   17   EE     11
   10   16   SS      5
   10   16   SE      4
   10   16   ES     -8
   10   16   EE     -4
   10   20   SS      7
   10   20   SE     -5
   10   20   ES     -2
   10   20   EE     -5
   11   20   SS     -3
   11   20   SE    -12
   11   20   ES    -11
   11   20   EE     10
   12   15   SS      8
   12   15   SE     11
   12   15   ES     -9
   12   15   EE      4
   13   16   SS    -10
   13   16   SE     10
   13   16   ES      0
   13   16   EE      2
   14   18   SS      3
   14   18   SE      4
   14   18   ES     -3
   14   18   EE      4
   14   21   SS    -10
   14   21   SE      1
   14   21   ES     -1
   14   21   EE     -7
   15   19   SS     -4
   15   19   SE     -4
   15   19   ES     -4
   15   19   EE      9
   16   19   SS     -1
   16   19   SE     -4
   16   19   ES     -4
   16   19   EE      1
   17   21   SS    -11
   17   21   SE      5
   17   21   ES     -6
   17   21   EE      5
   18   19   SS     -1
   18   19   SE     10
   18   19   ES    -10
   18   19   EE      3
   19   22   SS      7
   19   22   SE      7
   19   22   ES     -6
   19   22   EE      2
   20   22   SS     10
   20   22   SE      5
   20   22   ES     -9
   20   22   EE    -12
   21   22   SS      8
   21   22   SE      9
   21   22   ES      8
   21   22   EE     12
************************************************************************
